
(set-logic ALL) 

(declare-datatype MyList ((Nil) (Cons (head Real) (tail MyList)) )) 
(declare-fun l0 () MyList) 
(declare-fun l1 () MyList) 
(declare-fun l2 () MyList) 
(declare-fun l3 () MyList) 
(declare-fun i0 () Real) 
(declare-fun i1 () Real) 
(assert (is-Nil Nil) )
(assert (= l3 Nil) )
(assert (or (is-Nil l3) (= l2 l1)) )
(assert (= l0 l2) )
(assert (and (is-Nil Nil) (= l3 l3) (= l1 Nil)) )
(assert (and (= l1 l3) (is-Cons Nil)) )
(assert (and (= l2 Nil) (= l3 l0) (= l2 Nil)) )
(assert (is-Cons l1) )
(check-sat)
